/*********************************************
    * Lab01 - simple
    * Author: Coso
    * Creation Date: Mar, 2019
    *********************************************/
instance_name = "medium_instance_23_simple";

d = 5;
r = 15;

SCj = [243 217 253 227 252];
Dk = [25 17 94 21 71 83 37 62 55 92 33 84 73 27 90];

Cjk = [[65 84 82 40 61 55 50 35 40 88 51 33 68 56 72]
 [41 32 33 53 43 53 68 62 71 74 30 62 45 61 50]
 [53 87 77 89 43 62 57 40 82 73 77 31 65 37 35]
 [76 40 70 62 73 30 55 86 60 61 49 66 78 73 41]
 [72 84 78 45 82 89 68 87 53 82 54 85 47 33 44]];
